\ENCODING=ISO-8859-1
\Problem name: 

Minimize
 obj: 10 x1 + 10 x2 + x3 + 10 x4 + x5 + x6 + 10 x7 + 10 x8 + 10 x9
Subject To
 c1:  x1 + z1,1 + z1,5 <= 1
 c2:  - x1 - z1,1 - z1,5 <= -1
 c3:  x2 + z2,1 + z2,2 <= 1
 c4:  - x2 - z2,1 - z2,2 <= -1
 c5:  x3 + z3,2 + z3,5 <= 1
 c6:  - x3 - z3,2 - z3,5 <= -1
 c7:  x4 + z4,1 + z4,3 <= 1
 c8:  - x4 - z4,1 - z4,3 <= -1
 c9:  x6 + z6,2 + z6,3 <= 1
 c10: - x6 - z6,2 - z6,3 <= -1
 c11: x7 + z7,2 + z7,4 <= 1
 c12: - x7 - z7,2 - z7,4 <= -1
 c13: z1,1 + z2,1 + z4,1 <= 1
 c14: - z1,1 - z2,1 - z4,1 <= -1
 c15: z2,2 + z3,2 + z6,2 + z7,2 <= 1
 c16: - z2,2 - z3,2 - z6,2 - z7,2 <= -1
 c17: x1 + x2 + x3 <= 2
 c18: - x1 - x2 - x3 <= -2
 c19: x1 + x4 + x5 <= 2
 c20: - x1 - x4 - x5 <= -2
 c21: x2 + x4 + x6 <= 2
 c22: - x2 - x4 - x6 <= -2
 c23: x6 + x7 + x8 <= 2
 c24: - x6 - x7 - x8 <= -2
 c25: x3 + x7 + x9 <= 2
 c26: - x3 - x7 - x9 <= -2
 c27: x5 + x8 + x9 <= 2
 c28: - x5 - x8 - x9 <= -2
c29: z1,1+z2,2+z4,3 + z3,2+z3,5+z6,2+z6,3 + z2,1 +z3,5 + z7,4 + z6,3 >= 1
End
